CMD:
./solvers/bin/cadical --plain --no-reduce -t 1600 ./data/cnfs//marlann_compute_cp_fail1-p2/marlann_compute_cp_fail1-p2.3.cnf

c --- [ banner ] -------------------------------------------------------------
c 
c CaDiCaL SAT Solver
c Copyright (c) 2016-2024
c A. Biere, M. Fleury, N. Froleyks, K. Fazekas, F. Pollitt, T. Faller
c JKU Linz, University of Freiburg, TU Wien
c 
c Version 2.1.3 5296d3d2a9bf48c154ab2acb5e44625776d821bf
c g++ (Gentoo 12.3.1_p20230526 p2) 12.3.1 20230526 -Wall -Wextra -O3 -DNDEBUG
c Sat Aug 9 07:26:21 PDT 2025 Linux cedar2.int.cedar.computecanada.ca 5.14.0-362.24.2.el9_3.x86_64 x86_64
c 
c --- [ limit ] --------------------------------------------------------------
c 
c setting time limit to 1600 seconds real time (due to '-t 1600')
c 
c --- [ parsing input ] ------------------------------------------------------
c 
c reading DIMACS file from './data/cnfs//marlann_compute_cp_fail1-p2/marlann_compute_cp_fail1-p2.3.cnf'
c opening file to read './data/cnfs//marlann_compute_cp_fail1-p2/marlann_compute_cp_fail1-p2.3.cnf'
c found 'p cnf 17082 44298' header
c parsed 44298 clauses in 0.01 seconds process time
c 
c --- [ options ] ------------------------------------------------------------
c 
c   --compact=false                (different from default 'true')
c   --decompose=false              (different from default 'true')
c   --deduplicate=false            (different from default 'true')
c   --elim=false                   (different from default 'true')
c   --probe=false                  (different from default 'true')
c   --reduce=false                 (different from default 'true')
c   --subsume=false                (different from default 'true')
c   --ternary=false                (different from default 'true')
c   --transred=false               (different from default 'true')
c   --vivify=false                 (different from default 'true')
c 
c --- [ solving ] ------------------------------------------------------------
c 
c time measured in process time since initialization
c 
c  seconds  reductions  redundant  irredundant
c         MB    restarts       trail      variables
c          level   conflicts       glue        remaining
c 
c *  0.01 11  0 0   0    0    0  0% 0 42979 15880 93%
c {  0.01 11  0 0   0    0    0  0% 0 42979 15880 93%
c i  0.01 11 133 0   0    1    0  6% 0 42979 15879 93%
c i  0.01 11 357 0   0    5    3 29% 1 42979 15865 93%
c i  0.01 11 309 0   0    7    3 24% 1 42979 15788 92%
c i  0.01 11 288 0   0    8    3 22% 0 42979 15785 92%
c }  0.01 11 271 0   0   10    3 19% 0 42979 15769 92%
c 0  0.01 11 271 0   0   10    3 19% 0 42979 15769 92%
c 
c --- [ result ] -------------------------------------------------------------
c 
s UNSATISFIABLE
c 
c --- [ run-time profiling ] -------------------------------------------------
c 
c process time taken by individual solving procedures
c (percentage relative to process time for solving)
c 
c         0.01  284.38% parse
c         0.00   96.97% search
c         0.00   74.02% lucky
c         0.00   22.48% unstable
c         0.00    0.00% simplify
c   =================================
c         0.00   25.17% solve
c 
c last line shows process time for solving
c (percentage relative to total process time)
c 
c --- [ statistics ] ---------------------------------------------------------
c 
c chronological:                 8        80.00 %  of conflicts
c conflicts:                    10      4210.53    per second
c decisions:                   611    257263.16    per second
c fixed:                       745         4.36 %  of all variables
c learned:                       9        90.00 %  per conflict
c learned_lits:                 13       100.00 %  learned literals
c minimized:                     0         0.00 %  learned literals
c shrunken:                      0         0.00 %  learned literals
c minishrunken:                  0         0.00 %  learned literals
c otfs:                          0         0.00 %  of conflict
c propagations:               7868         3.31 M  per second
c 
c seconds are measured in process time for solving
c 
c --- [ resources ] ----------------------------------------------------------
c 
c total process time since initialization:         0.01    seconds
c total real time since initialization:            0.01    seconds
c maximum resident set size of process:           28.64    MB
c 
c --- [ shutting down ] ------------------------------------------------------
c 
c exit 20
